385289
41,61,15,52,4,10,75,28,60,43,13,2,69,47,55,33,17,38,57,56,45,51,11,81,27,77,58,46,18,66,20,16,34,3,12,32,22,72,74,76,14,37,78,36,31,70,26,64,73,29,80,21,48,53,8,19,1,71,67,62,54,65,42,68,9,7,82,25,24,35,23,49,44,6,39,5,83,79,30,40,59,50,63